NAME : berlin52.tsp
COMMENT : Optimal tour for berlin52.tsp
TYPE : TOUR
DIMENSION : 52
Total Length: 8022.566516187189
TOUR_SECTION
1
22
32
49
36
35
34
39
40
37
38
48
24
5
15
6
4
25
46
44
16
50
20
23
21
31
18
3
17
7
2
42
30
29
47
26
28
27
13
14
52
11
12
51
33
43
10
9
8
41
19
45
-1
EOF
